experiments/sat_smt/run/sat-r+/results/sarah.res
solved=true
solvingTime=5.1836071014404296875
nActions=8