experiments/sat_smt/run/sat-r+/results/sarah.out
Timesteps: 1
s UNSATISFIABLE
real 0.13
user 0.01
sys 0.00
Timesteps: 2
s UNSATISFIABLE
real 0.15
user 0.02
sys 0.00
Timesteps: 3
s UNSATISFIABLE
real 0.21
user 0.07
sys 0.01
Timesteps: 4
s UNSATISFIABLE
real 0.24
user 0.16
sys 0.00
Timesteps: 5
s UNSATISFIABLE
real 0.37
user 0.28
sys 0.00
Timesteps: 6
s UNSATISFIABLE
real 1.08
user 0.96
sys 0.00
Timesteps: 7
s UNSATISFIABLE
real 1.32
user 1.11
sys 0.01
Timesteps: 8
s SATISFIABLE
real 1.49
user 1.35
sys 0.01
